p cnf 1709 958
-1439 1580 0
-1580 1439 0
-1582 -1583 0
-1441 1582 0
-1442 1583 0
-1582 1441 0
-1583 1442 0
-1585 -1586 0
-1444 1585 0
-1445 1586 0
-1585 1444 0
-1586 1445 0
-1588 -1589 0
-1588 -1590 0
-1589 -1590 0
-1447 1588 0
-1448 1589 0
-1449 1590 0
-1588 1447 0
-1589 1448 0
-1590 1449 0
-1592 -1593 0
-1451 1592 0
-1452 1593 0
-1592 1451 0
-1593 1452 0
-1595 -1596 0
-1595 -1597 0
-1596 -1597 0
-1454 1595 0
-1455 1596 0
-1456 1597 0
-1595 1454 0
-1596 1455 0
-1597 1456 0
-1599 -1600 0
-1458 1599 0
-1459 1600 0
-1599 1458 0
-1600 1459 0
-1602 -1603 0
-1602 -1604 0
-1603 -1604 0
-1461 1602 0
-1462 1603 0
-1463 1604 0
-1602 1461 0
-1603 1462 0
-1604 1463 0
-1606 -1607 0
-1465 1606 0
-1466 1607 0
-1606 1465 0
-1607 1466 0
-1609 -1610 0
-1609 -1611 0
-1610 -1611 0
-1468 1609 0
-1469 1610 0
-1470 1611 0
-1609 1468 0
-1610 1469 0
-1611 1470 0
-1613 -1614 0
-1472 1613 0
-1473 1614 0
-1613 1472 0
-1614 1473 0
-1616 -1617 0
-1616 -1618 0
-1617 -1618 0
-1475 1616 0
-1476 1617 0
-1477 1618 0
-1616 1475 0
-1617 1476 0
-1618 1477 0
-1620 -1621 0
-1479 1620 0
-1480 1621 0
-1620 1479 0
-1621 1480 0
-1624 1633 1634 1635 1636 1637 0
-1633 -1634 0
-1633 -1635 0
-1633 -1636 0
-1633 -1637 0
-1634 -1635 0
-1634 -1636 0
-1634 -1637 0
-1635 -1636 0
-1635 -1637 0
-1636 -1637 0
-1624 1638 1639 1640 1641 1642 1643 1644 0
-1638 -1639 0
-1638 -1640 0
-1638 -1641 0
-1638 -1642 0
-1638 -1643 0
-1638 -1644 0
-1639 -1640 0
-1639 -1641 0
-1639 -1642 0
-1639 -1643 0
-1639 -1644 0
-1640 -1641 0
-1640 -1642 0
-1640 -1643 0
-1640 -1644 0
-1641 -1642 0
-1641 -1643 0
-1641 -1644 0
-1642 -1643 0
-1642 -1644 0
-1643 -1644 0
-1624 1645 1646 1647 1648 1649 1650 1651 1652 0
-1645 -1646 0
-1645 -1647 0
-1645 -1648 0
-1645 -1649 0
-1645 -1650 0
-1645 -1651 0
-1645 -1652 0
-1646 -1647 0
-1646 -1648 0
-1646 -1649 0
-1646 -1650 0
-1646 -1651 0
-1646 -1652 0
-1647 -1648 0
-1647 -1649 0
-1647 -1650 0
-1647 -1651 0
-1647 -1652 0
-1648 -1649 0
-1648 -1650 0
-1648 -1651 0
-1648 -1652 0
-1649 -1650 0
-1649 -1651 0
-1649 -1652 0
-1650 -1651 0
-1650 -1652 0
-1651 -1652 0
-1624 1629 0
-1624 1630 0
-1624 1628 0
-1625 1633 1634 1635 1636 1637 0
-1633 -1634 0
-1633 -1635 0
-1633 -1636 0
-1633 -1637 0
-1634 -1635 0
-1634 -1636 0
-1634 -1637 0
-1635 -1636 0
-1635 -1637 0
-1636 -1637 0
-1625 1638 1639 1640 1641 1642 1643 1644 0
-1638 -1639 0
-1638 -1640 0
-1638 -1641 0
-1638 -1642 0
-1638 -1643 0
-1638 -1644 0
-1639 -1640 0
-1639 -1641 0
-1639 -1642 0
-1639 -1643 0
-1639 -1644 0
-1640 -1641 0
-1640 -1642 0
-1640 -1643 0
-1640 -1644 0
-1641 -1642 0
-1641 -1643 0
-1641 -1644 0
-1642 -1643 0
-1642 -1644 0
-1643 -1644 0
-1625 1645 1646 1647 1648 1649 1650 1651 1652 0
-1645 -1646 0
-1645 -1647 0
-1645 -1648 0
-1645 -1649 0
-1645 -1650 0
-1645 -1651 0
-1645 -1652 0
-1646 -1647 0
-1646 -1648 0
-1646 -1649 0
-1646 -1650 0
-1646 -1651 0
-1646 -1652 0
-1647 -1648 0
-1647 -1649 0
-1647 -1650 0
-1647 -1651 0
-1647 -1652 0
-1648 -1649 0
-1648 -1650 0
-1648 -1651 0
-1648 -1652 0
-1649 -1650 0
-1649 -1651 0
-1649 -1652 0
-1650 -1651 0
-1650 -1652 0
-1651 -1652 0
-1625 1632 0
-1625 1631 0
-1625 1628 0
-1623 -1624 0
-1623 -1625 0
-1623 -1626 0
-1624 -1625 0
-1624 -1626 0
-1625 -1626 0
-1636 -1638 -1628 1525 0
-1636 -1643 -1628 1533 0
-1636 -1639 -1628 1512 0
-1634 -1642 -1628 1513 0
-1636 -1644 -1628 1515 0
-1633 -1639 -1628 1516 0
-1635 -1639 -1628 1528 0
-1637 -1642 -1628 1544 0
-1635 -1644 -1628 1518 0
-1636 -1641 -1628 1519 0
-1635 -1642 -1628 1537 0
-1633 -1642 -1628 1529 0
-1637 -1643 -1628 1521 0
-1637 -1639 -1628 1545 0
-1633 -1643 -1628 1546 0
-1636 -1640 -1628 1539 0
-1634 -1639 -1628 1540 0
-1637 -1638 -1628 1523 0
-1637 -1640 -1628 1541 0
-1634 -1644 -1628 1532 0
-1637 -1644 -1628 1524 0
-1636 -1642 -1628 1543 0
-1633 -1644 -1628 1548 0
-1634 -1640 -1628 1549 0
-1633 -1640 -1628 1550 0
-1633 -1629 1409 0
-1636 -1629 1397 0
-1634 -1629 1394 0
-1637 -1629 1416 0
-1635 -1629 1408 0
-1649 -1630 1536 0
-1648 -1630 1510 0
-1650 -1630 1511 0
-1646 -1630 1530 0
-1645 -1630 1535 0
-1647 -1630 1527 0
-1651 -1630 1542 0
-1652 -1630 1517 0
-1633 -1631 1535 0
-1637 -1631 1510 0
-1634 -1631 1511 0
-1635 -1631 1527 0
-1636 -1631 1542 0
-1645 -1632 1409 0
-1650 -1632 1394 0
-1646 -1632 1420 0
-1651 -1632 1397 0
-1649 -1632 1401 0
-1648 -1632 1416 0
-1647 -1632 1408 0
-1652 -1632 1390 0
-1624 -1634 -1645 0
-1624 -1634 -1651 0
-1624 -1634 -1650 0
-1624 -1634 -1648 0
-1624 -1635 -1645 0
-1624 -1635 -1651 0
-1624 -1635 -1647 0
-1624 -1635 -1650 0
-1624 -1635 -1648 0
-1624 -1633 -1645 0
-1624 -1633 -1651 0
-1624 -1633 -1648 0
-1624 -1636 -1651 0
-1624 -1637 -1651 0
-1624 -1637 -1648 0
-1624 -1634 -1641 0
-1624 -1634 -1643 0
-1624 -1634 -1638 0
-1624 -1635 -1641 0
-1624 -1635 -1643 0
-1624 -1635 -1640 0
-1624 -1635 -1638 0
-1624 -1633 -1641 0
-1624 -1633 -1638 0
-1624 -1637 -1641 0
-1625 -1634 -1645 0
-1625 -1634 -1651 0
-1625 -1634 -1650 0
-1625 -1634 -1648 0
-1625 -1635 -1645 0
-1625 -1635 -1651 0
-1625 -1635 -1647 0
-1625 -1635 -1650 0
-1625 -1635 -1648 0
-1625 -1633 -1645 0
-1625 -1633 -1651 0
-1625 -1633 -1648 0
-1625 -1636 -1651 0
-1625 -1637 -1651 0
-1625 -1637 -1648 0
-1625 -1634 -1641 0
-1625 -1634 -1643 0
-1625 -1634 -1638 0
-1625 -1635 -1641 0
-1625 -1635 -1643 0
-1625 -1635 -1640 0
-1625 -1635 -1638 0
-1625 -1633 -1641 0
-1625 -1633 -1638 0
-1625 -1637 -1641 0
-1506 1624 0
-1507 1625 0
-1508 1626 0
-1505 1623 0
-1623 1505 0
-1624 1506 0
-1625 1507 0
-1626 1508 0
-1653 1655 0
-1654 -1655 0
-1510 1656 -1624 1648 0
-1510 1656 -1625 1637 0
-1510 1656 1624 1625 0
1510 -1656 -1624 1637 0
1510 -1656 -1625 1641 0
1510 -1656 1624 1625 0
-1511 1657 -1624 1650 0
-1511 1657 -1625 1634 0
-1511 1657 1624 1625 0
1511 -1657 -1624 1634 0
1511 -1657 -1625 1643 0
1511 -1657 1624 1625 0
-1512 1658 -1624 -1636 1639 0
-1512 1658 -1624 1636 0
-1512 1658 -1625 -1636 1639 0
-1512 1658 -1625 1636 0
-1512 1658 1624 1625 0
1512 -1658 -1624 -1636 1646 0
1512 -1658 -1624 1636 0
1512 -1658 -1625 -1636 1646 0
1512 -1658 -1625 1636 0
1512 -1658 1624 1625 0
-1513 1659 -1624 -1634 1642 0
-1513 1659 -1624 1634 0
-1513 1659 -1625 -1634 1642 0
-1513 1659 -1625 1634 0
-1513 1659 1624 1625 0
1513 -1659 -1624 -1634 1649 0
1513 -1659 -1624 1634 0
1513 -1659 -1625 -1634 1649 0
1513 -1659 -1625 1634 0
1513 -1659 1624 1625 0
-1515 1660 -1624 -1636 1644 0
-1515 1660 -1624 1636 0
-1515 1660 -1625 -1636 1644 0
-1515 1660 -1625 1636 0
-1515 1660 1624 1625 0
1515 -1660 -1624 -1636 1652 0
1515 -1660 -1624 1636 0
1515 -1660 -1625 -1636 1652 0
1515 -1660 -1625 1636 0
1515 -1660 1624 1625 0
-1516 1661 -1624 -1633 1639 0
-1516 1661 -1624 1633 0
-1516 1661 -1625 -1633 1639 0
-1516 1661 -1625 1633 0
-1516 1661 1624 1625 0
1516 -1661 -1624 -1633 1646 0
1516 -1661 -1624 1633 0
1516 -1661 -1625 -1633 1646 0
1516 -1661 -1625 1633 0
1516 -1661 1624 1625 0
-1517 1662 -1624 1652 0
-1517 1662 1624 0
1517 -1662 -1625 1644 0
1517 -1662 1625 0
-1518 1663 -1624 -1635 1644 0
-1518 1663 -1624 1635 0
-1518 1663 -1625 -1635 1644 0
-1518 1663 -1625 1635 0
-1518 1663 1624 1625 0
1518 -1663 -1624 -1635 1652 0
1518 -1663 -1624 1635 0
1518 -1663 -1625 -1635 1652 0
1518 -1663 -1625 1635 0
1518 -1663 1624 1625 0
-1390 1664 -1625 1652 0
-1390 1664 1625 0
1390 -1664 -1624 1644 0
1390 -1664 1624 0
-1519 1665 -1624 -1636 1641 0
-1519 1665 -1624 1636 0
-1519 1665 -1625 -1636 1641 0
-1519 1665 -1625 1636 0
-1519 1665 1624 1625 0
1519 -1665 -1624 -1636 1648 0
1519 -1665 -1624 1636 0
1519 -1665 -1625 -1636 1648 0
1519 -1665 -1625 1636 0
1519 -1665 1624 1625 0
-1521 1666 -1624 -1637 1643 0
-1521 1666 -1624 1637 0
-1521 1666 -1625 -1637 1643 0
-1521 1666 -1625 1637 0
-1521 1666 1624 1625 0
1521 -1666 -1624 -1637 1650 0
1521 -1666 -1624 1637 0
1521 -1666 -1625 -1637 1650 0
1521 -1666 -1625 1637 0
1521 -1666 1624 1625 0
-1394 1667 -1624 1634 0
-1394 1667 -1625 1650 0
-1394 1667 1624 1625 0
1394 -1667 -1624 1643 0
1394 -1667 -1625 1634 0
1394 -1667 1624 1625 0
-1523 1668 -1624 -1637 1638 0
-1523 1668 -1624 1637 0
-1523 1668 -1625 -1637 1638 0
-1523 1668 -1625 1637 0
-1523 1668 1624 1625 0
1523 -1668 -1624 -1637 1645 0
1523 -1668 -1624 1637 0
1523 -1668 -1625 -1637 1645 0
1523 -1668 -1625 1637 0
1523 -1668 1624 1625 0
-1397 1669 -1624 1636 0
-1397 1669 -1625 1651 0
-1397 1669 1624 1625 0
1397 -1669 -1625 1636 0
1397 -1669 1625 0
-1524 1670 -1624 -1637 1644 0
-1524 1670 -1624 1637 0
-1524 1670 -1625 -1637 1644 0
-1524 1670 -1625 1637 0
-1524 1670 1624 1625 0
1524 -1670 -1624 -1637 1652 0
1524 -1670 -1624 1637 0
1524 -1670 -1625 -1637 1652 0
1524 -1670 -1625 1637 0
1524 -1670 1624 1625 0
-1525 1671 -1624 -1636 1638 0
-1525 1671 -1624 1636 0
-1525 1671 -1625 -1636 1638 0
-1525 1671 -1625 1636 0
-1525 1671 1624 1625 0
1525 -1671 -1624 -1636 1645 0
1525 -1671 -1624 1636 0
1525 -1671 -1625 -1636 1645 0
1525 -1671 -1625 1636 0
1525 -1671 1624 1625 0
-1527 1672 -1624 1647 0
-1527 1672 -1625 1635 0
-1527 1672 1624 1625 0
1527 -1672 -1624 1635 0
1527 -1672 -1625 1640 0
1527 -1672 1624 1625 0
-1401 1673 -1625 1649 0
-1401 1673 1625 0
1401 -1673 -1624 1642 0
1401 -1673 1624 0
-1528 1674 -1624 -1635 1639 0
-1528 1674 -1624 1635 0
-1528 1674 -1625 -1635 1639 0
-1528 1674 -1625 1635 0
-1528 1674 1624 1625 0
1528 -1674 -1624 -1635 1646 0
1528 -1674 -1624 1635 0
1528 -1674 -1625 -1635 1646 0
1528 -1674 -1625 1635 0
1528 -1674 1624 1625 0
-1529 1675 -1624 -1633 1642 0
-1529 1675 -1624 1633 0
-1529 1675 -1625 -1633 1642 0
-1529 1675 -1625 1633 0
-1529 1675 1624 1625 0
1529 -1675 -1624 -1633 1649 0
1529 -1675 -1624 1633 0
1529 -1675 -1625 -1633 1649 0
1529 -1675 -1625 1633 0
1529 -1675 1624 1625 0
-1530 1676 -1624 1646 0
-1530 1676 1624 0
1530 -1676 -1625 1639 0
1530 -1676 1625 0
-1532 1677 -1624 -1634 1644 0
-1532 1677 -1624 1634 0
-1532 1677 -1625 -1634 1644 0
-1532 1677 -1625 1634 0
-1532 1677 1624 1625 0
1532 -1677 -1624 -1634 1652 0
1532 -1677 -1624 1634 0
1532 -1677 -1625 -1634 1652 0
1532 -1677 -1625 1634 0
1532 -1677 1624 1625 0
-1533 1678 -1624 -1636 1643 0
-1533 1678 -1624 1636 0
-1533 1678 -1625 -1636 1643 0
-1533 1678 -1625 1636 0
-1533 1678 1624 1625 0
1533 -1678 -1624 -1636 1650 0
1533 -1678 -1624 1636 0
1533 -1678 -1625 -1636 1650 0
1533 -1678 -1625 1636 0
1533 -1678 1624 1625 0
-1535 1679 -1624 1645 0
-1535 1679 -1625 1633 0
-1535 1679 1624 1625 0
1535 -1679 -1624 1633 0
1535 -1679 -1625 1638 0
1535 -1679 1624 1625 0
-1408 1680 -1624 1635 0
-1408 1680 -1625 1647 0
-1408 1680 1624 1625 0
1408 -1680 -1624 1640 0
1408 -1680 -1625 1635 0
1408 -1680 1624 1625 0
-1536 1681 -1624 1649 0
-1536 1681 1624 0
1536 -1681 -1625 1642 0
1536 -1681 1625 0
-1409 1682 -1624 1633 0
-1409 1682 -1625 1645 0
-1409 1682 1624 1625 0
1409 -1682 -1624 1638 0
1409 -1682 -1625 1633 0
1409 -1682 1624 1625 0
-1537 1683 -1624 -1635 1642 0
-1537 1683 -1624 1635 0
-1537 1683 -1625 -1635 1642 0
-1537 1683 -1625 1635 0
-1537 1683 1624 1625 0
1537 -1683 -1624 -1635 1649 0
1537 -1683 -1624 1635 0
1537 -1683 -1625 -1635 1649 0
1537 -1683 -1625 1635 0
1537 -1683 1624 1625 0
-1539 1684 -1624 -1636 1640 0
-1539 1684 -1624 1636 0
-1539 1684 -1625 -1636 1640 0
-1539 1684 -1625 1636 0
-1539 1684 1624 1625 0
1539 -1684 -1624 -1636 1647 0
1539 -1684 -1624 1636 0
1539 -1684 -1625 -1636 1647 0
1539 -1684 -1625 1636 0
1539 -1684 1624 1625 0
-1540 1685 -1624 -1634 1639 0
-1540 1685 -1624 1634 0
-1540 1685 -1625 -1634 1639 0
-1540 1685 -1625 1634 0
-1540 1685 1624 1625 0
1540 -1685 -1624 -1634 1646 0
1540 -1685 -1624 1634 0
1540 -1685 -1625 -1634 1646 0
1540 -1685 -1625 1634 0
1540 -1685 1624 1625 0
-1541 1686 -1624 -1637 1640 0
-1541 1686 -1624 1637 0
-1541 1686 -1625 -1637 1640 0
-1541 1686 -1625 1637 0
-1541 1686 1624 1625 0
1541 -1686 -1624 -1637 1647 0
1541 -1686 -1624 1637 0
1541 -1686 -1625 -1637 1647 0
1541 -1686 -1625 1637 0
1541 -1686 1624 1625 0
-1542 1687 -1624 1651 0
-1542 1687 -1625 1636 0
-1542 1687 1624 1625 0
1542 -1687 -1624 1636 0
1542 -1687 1624 0
-1543 1688 -1624 -1636 1642 0
-1543 1688 -1624 1636 0
-1543 1688 -1625 -1636 1642 0
-1543 1688 -1625 1636 0
-1543 1688 1624 1625 0
1543 -1688 -1624 -1636 1649 0
1543 -1688 -1624 1636 0
1543 -1688 -1625 -1636 1649 0
1543 -1688 -1625 1636 0
1543 -1688 1624 1625 0
-1416 1689 -1624 1637 0
-1416 1689 -1625 1648 0
-1416 1689 1624 1625 0
1416 -1689 -1624 1641 0
1416 -1689 -1625 1637 0
1416 -1689 1624 1625 0
-1544 1690 -1624 -1637 1642 0
-1544 1690 -1624 1637 0
-1544 1690 -1625 -1637 1642 0
-1544 1690 -1625 1637 0
-1544 1690 1624 1625 0
1544 -1690 -1624 -1637 1649 0
1544 -1690 -1624 1637 0
1544 -1690 -1625 -1637 1649 0
1544 -1690 -1625 1637 0
1544 -1690 1624 1625 0
-1545 1691 -1624 -1637 1639 0
-1545 1691 -1624 1637 0
-1545 1691 -1625 -1637 1639 0
-1545 1691 -1625 1637 0
-1545 1691 1624 1625 0
1545 -1691 -1624 -1637 1646 0
1545 -1691 -1624 1637 0
1545 -1691 -1625 -1637 1646 0
1545 -1691 -1625 1637 0
1545 -1691 1624 1625 0
-1546 1692 -1624 -1633 1643 0
-1546 1692 -1624 1633 0
-1546 1692 -1625 -1633 1643 0
-1546 1692 -1625 1633 0
-1546 1692 1624 1625 0
1546 -1692 -1624 -1633 1650 0
1546 -1692 -1624 1633 0
1546 -1692 -1625 -1633 1650 0
1546 -1692 -1625 1633 0
1546 -1692 1624 1625 0
-1420 1693 -1625 1646 0
-1420 1693 1625 0
1420 -1693 -1624 1639 0
1420 -1693 1624 0
-1548 1694 -1624 -1633 1644 0
-1548 1694 -1624 1633 0
-1548 1694 -1625 -1633 1644 0
-1548 1694 -1625 1633 0
-1548 1694 1624 1625 0
1548 -1694 -1624 -1633 1652 0
1548 -1694 -1624 1633 0
1548 -1694 -1625 -1633 1652 0
1548 -1694 -1625 1633 0
1548 -1694 1624 1625 0
-1549 1695 -1624 -1634 1640 0
-1549 1695 -1624 1634 0
-1549 1695 -1625 -1634 1640 0
-1549 1695 -1625 1634 0
-1549 1695 1624 1625 0
1549 -1695 -1624 -1634 1647 0
1549 -1695 -1624 1634 0
1549 -1695 -1625 -1634 1647 0
1549 -1695 -1625 1634 0
1549 -1695 1624 1625 0
-1550 1696 -1624 -1633 1640 0
-1550 1696 -1624 1633 0
-1550 1696 -1625 -1633 1640 0
-1550 1696 -1625 1633 0
-1550 1696 1624 1625 0
1550 -1696 -1624 -1633 1647 0
1550 -1696 -1624 1633 0
1550 -1696 -1625 -1633 1647 0
1550 -1696 -1625 1633 0
1550 -1696 1624 1625 0
-1653 -1654 0
-1636 -1638 1697 -1671 0
-1636 -1643 1697 -1678 0
-1636 -1639 1697 -1658 0
-1634 -1642 1697 -1659 0
-1636 -1644 1697 -1660 0
-1633 -1639 1697 -1661 0
-1635 -1639 1697 -1674 0
-1637 -1642 1697 -1690 0
-1635 -1644 1697 -1663 0
-1636 -1641 1697 -1665 0
-1635 -1642 1697 -1683 0
-1633 -1642 1697 -1675 0
-1637 -1643 1697 -1666 0
-1637 -1639 1697 -1691 0
-1633 -1643 1697 -1692 0
-1636 -1640 1697 -1684 0
-1634 -1639 1697 -1685 0
-1637 -1638 1697 -1668 0
-1637 -1640 1697 -1686 0
-1634 -1644 1697 -1677 0
-1637 -1644 1697 -1670 0
-1636 -1642 1697 -1688 0
-1633 -1644 1697 -1694 0
-1634 -1640 1697 -1695 0
-1633 -1640 1697 -1696 0
-1633 1698 -1682 0
-1636 1698 -1669 0
-1634 1698 -1667 0
-1637 1698 -1689 0
-1635 1698 -1680 0
-1633 -1698 1682 0
-1636 -1698 1669 0
-1634 -1698 1667 0
-1637 -1698 1689 0
-1635 -1698 1680 0
-1649 1699 -1681 0
-1648 1699 -1656 0
-1650 1699 -1657 0
-1646 1699 -1676 0
-1645 1699 -1679 0
-1647 1699 -1672 0
-1651 1699 -1687 0
-1652 1699 -1662 0
-1642 -1700 1681 0
-1641 -1700 1656 0
-1643 -1700 1657 0
-1639 -1700 1676 0
-1638 -1700 1679 0
-1640 -1700 1672 0
-1644 -1700 1662 0
-1638 -1701 1682 0
-1643 -1701 1667 0
-1639 -1701 1693 0
-1642 -1701 1673 0
-1641 -1701 1689 0
-1640 -1701 1680 0
-1644 -1701 1664 0
-1636 -1645 -1702 1671 0
-1636 -1650 -1702 1678 0
-1636 -1646 -1702 1658 0
-1634 -1649 -1702 1659 0
-1636 -1652 -1702 1660 0
-1633 -1646 -1702 1661 0
-1635 -1646 -1702 1674 0
-1637 -1649 -1702 1690 0
-1635 -1652 -1702 1663 0
-1636 -1648 -1702 1665 0
-1635 -1649 -1702 1683 0
-1633 -1649 -1702 1675 0
-1637 -1650 -1702 1666 0
-1637 -1646 -1702 1691 0
-1633 -1650 -1702 1692 0
-1636 -1647 -1702 1684 0
-1634 -1646 -1702 1685 0
-1637 -1645 -1702 1668 0
-1637 -1647 -1702 1686 0
-1634 -1652 -1702 1677 0
-1637 -1652 -1702 1670 0
-1636 -1649 -1702 1688 0
-1633 -1652 -1702 1694 0
-1634 -1647 -1702 1695 0
-1633 -1647 -1702 1696 0
-1645 1703 -1682 0
-1650 1703 -1667 0
-1646 1703 -1693 0
-1651 1703 -1669 0
-1649 1703 -1673 0
-1648 1703 -1689 0
-1647 1703 -1680 0
-1652 1703 -1664 0
-1633 1704 -1679 0
-1637 1704 -1656 0
-1634 1704 -1657 0
-1635 1704 -1672 0
-1636 1704 -1687 0
-1633 -1704 1679 0
-1637 -1704 1656 0
-1634 -1704 1657 0
-1635 -1704 1672 0
-1636 -1704 1687 0
-1705 1638 -1645 0
-1705 -1638 1645 0
-1705 1639 -1646 0
-1705 -1639 1646 0
-1705 1640 -1647 0
-1705 -1640 1647 0
-1705 1641 -1648 0
-1705 -1641 1648 0
-1705 1642 -1649 0
-1705 -1642 1649 0
-1705 1643 -1650 0
-1705 -1643 1650 0
-1705 1644 -1652 0
-1705 -1644 1652 0
-1638 -1645 1705 0
-1639 -1646 1705 0
-1640 -1647 1705 0
-1641 -1648 1705 0
-1642 -1649 1705 0
-1643 -1650 1705 0
-1644 -1652 1705 0
-1651 -1705 0
-1624 -1697 1705 0
-1706 1645 -1638 0
-1706 -1645 1638 0
-1706 1646 -1639 0
-1706 -1646 1639 0
-1706 1647 -1640 0
-1706 -1647 1640 0
-1706 1648 -1641 0
-1706 -1648 1641 0
-1706 1649 -1642 0
-1706 -1649 1642 0
-1706 1650 -1643 0
-1706 -1650 1643 0
-1706 1652 -1644 0
-1706 -1652 1644 0
-1645 -1638 1706 0
-1646 -1639 1706 0
-1647 -1640 1706 0
-1648 -1641 1706 0
-1649 -1642 1706 0
-1650 -1643 1706 0
-1652 -1644 1706 0
-1651 -1706 0
-1707 1645 -1633 0
-1707 -1645 1633 0
-1707 1650 -1634 0
-1707 -1650 1634 0
-1707 1647 -1635 0
-1707 -1647 1635 0
-1707 1651 -1636 0
-1707 -1651 1636 0
-1707 1648 -1637 0
-1707 -1648 1637 0
-1645 -1633 1707 0
-1650 -1634 1707 0
-1647 -1635 1707 0
-1651 -1636 1707 0
-1648 -1637 1707 0
-1649 -1707 0
-1646 -1707 0
-1652 -1707 0
-1624 -1699 1707 0
-1708 1633 -1638 0
-1708 -1633 1638 0
-1708 1634 -1643 0
-1708 -1634 1643 0
-1708 1635 -1640 0
-1708 -1635 1640 0
-1708 1637 -1641 0
-1708 -1637 1641 0
-1633 -1638 1708 0
-1634 -1643 1708 0
-1635 -1640 1708 0
-1637 -1641 1708 0
-1636 -1708 0
-1642 -1708 0
-1639 -1708 0
-1644 -1708 0
-1624 -1698 1708 0
-1624 1701 0
-1624 1702 0
-1624 1704 0
-1625 1698 0
-1625 -1704 1708 0
-1625 -1697 1705 0
-1625 1702 0
-1625 -1703 1707 0
-1625 1700 0
-1506 1654 0
-1507 1654 0
-1508 1653 0
-1505 1653 0
-1654 1506 1507 0
-1653 1508 1505 0
-1656 151 -1655 0
1656 -151 -1655 0
-1657 152 -1655 0
1657 -152 -1655 0
-1658 154 -1655 0
1658 -154 -1655 0
-1659 155 -1655 0
1659 -155 -1655 0
-1514 385 -1655 0
1514 -385 -1655 0
-1660 156 -1655 0
1660 -156 -1655 0
-1661 158 -1655 0
1661 -158 -1655 0
-1662 159 -1655 0
1662 -159 -1655 0
-1663 160 -1655 0
1663 -160 -1655 0
-1664 602 -1655 0
1664 -602 -1655 0
-1665 10 -1655 0
1665 -10 -1655 0
-1520 162 -1655 0
1520 -162 -1655 0
-1666 163 -1655 0
1666 -163 -1655 0
-1667 270 -1655 0
1667 -270 -1655 0
-1522 386 -1655 0
1522 -386 -1655 0
-1668 11 -1655 0
1668 -11 -1655 0
-1669 271 -1655 0
1669 -271 -1655 0
-1670 167 -1655 0
1670 -167 -1655 0
-1671 170 -1655 0
1671 -170 -1655 0
-1526 171 -1655 0
1526 -171 -1655 0
-1672 172 -1655 0
1672 -172 -1655 0
-1673 273 -1655 0
1673 -273 -1655 0
-1674 12 -1655 0
1674 -12 -1655 0
-1675 174 -1655 0
1675 -174 -1655 0
-1676 274 -1655 0
1676 -274 -1655 0
-1531 387 -1655 0
1531 -387 -1655 0
-1677 176 -1655 0
1677 -176 -1655 0
-1678 153 -1655 0
1678 -153 -1655 0
-1534 388 -1655 0
1534 -388 -1655 0
-1679 157 -1655 0
1679 -157 -1655 0
-1680 267 -1655 0
1680 -267 -1655 0
-1681 268 -1655 0
1681 -268 -1655 0
-1682 269 -1655 0
1682 -269 -1655 0
-1683 161 -1655 0
1683 -161 -1655 0
-1538 389 -1655 0
1538 -389 -1655 0
-1684 164 -1655 0
1684 -164 -1655 0
-1685 165 -1655 0
1685 -165 -1655 0
-1686 166 -1655 0
1686 -166 -1655 0
-1687 168 -1655 0
1687 -168 -1655 0
-1688 169 -1655 0
1688 -169 -1655 0
-1689 272 -1655 0
1689 -272 -1655 0
-1690 173 -1655 0
1690 -173 -1655 0
-1691 175 -1655 0
1691 -175 -1655 0
-1692 13 -1655 0
1692 -13 -1655 0
-1693 603 -1655 0
1693 -603 -1655 0
-1547 390 -1655 0
1547 -390 -1655 0
-1694 177 -1655 0
1694 -177 -1655 0
-1695 14 -1655 0
1695 -14 -1655 0
-1696 178 -1655 0
1696 -178 -1655 0
-1578 1709 0
-1709 1578 0
a 1655 0
